\ Model IntegerProblem
\ LP format - for model browsing. Use MPS format to capture full model detail.
Maximize
  2 C0 + 2 C1 + 2 C2 + 2 C3 + 2 C4 + 2 C5 + 2 C6 + 2 C7 + 2 C8 + 2 C9
   + 2 C10 + 2 C11 + 2 C12 + 2 C13 + 2 C14
Subject To
 R0: C0 + C1 + C2 = 1
 R1: C3 + C4 + C5 = 1
 R2: C6 + C7 + C8 = 1
 R3: C9 + C10 + C11 = 1
 R4: C12 + C13 + C14 = 1
Bounds
Binaries
 C0 C1 C2 C3 C4 C5 C6 C7 C8 C9 C10 C11 C12 C13 C14
End
